NAME /Users/henri/Research/solvers/instances/idol-instances/robust/collection/spp_dkp_Lefebvre_et_al_2026/shortest_path_11_1/models/uncertain_ctr/model
ROWS
 N  OBJ
 E  flow_cons_inner_nodes[1]
 E  flow_cons_inner_nodes[2]
 E  flow_cons_inner_nodes[3]
 E  flow_cons_inner_nodes[5]
 E  flow_cons_inner_nodes[6]
 E  flow_cons_inner_nodes[7]
 E  flow_cons_inner_nodes[8]
 E  flow_cons_inner_nodes[9]
 E  flow_cons_inner_nodes[10]
 E  flow_cons_source
 E  flow_cons_target
 G  c_4022
COLUMNS
    z          OBJ        1
    z          c_4022     1
    MARKER    'MARKER'                 'INTORG'
    y[0,2]     OBJ        0
    y[0,2]     c_4022     -26.93
    y[0,2]     flow_cons_source 1
    y[0,2]     flow_cons_inner_nodes[2] 1
    y[0,3]     OBJ        0
    y[0,3]     flow_cons_source 1
    y[0,3]     c_4022     -65.19
    y[0,3]     flow_cons_inner_nodes[3] 1
    y[0,5]     OBJ        0
    y[0,5]     c_4022     -23.41
    y[0,5]     flow_cons_source 1
    y[0,5]     flow_cons_inner_nodes[5] 1
    y[0,6]     OBJ        0
    y[0,6]     c_4022     -76.9
    y[0,6]     flow_cons_source 1
    y[0,6]     flow_cons_inner_nodes[6] 1
    y[0,7]     OBJ        0
    y[0,7]     c_4022     -80.53
    y[0,7]     flow_cons_source 1
    y[0,7]     flow_cons_inner_nodes[7] 1
    y[0,8]     OBJ        0
    y[0,8]     c_4022     -63.89
    y[0,8]     flow_cons_source 1
    y[0,8]     flow_cons_inner_nodes[8] 1
    y[0,9]     OBJ        0
    y[0,9]     flow_cons_source 1
    y[0,9]     c_4022     -69.87
    y[0,9]     flow_cons_inner_nodes[9] 1
    y[1,2]     OBJ        0
    y[1,2]     c_4022     -80.53
    y[1,2]     flow_cons_inner_nodes[2] 1
    y[1,2]     flow_cons_inner_nodes[1] -1
    y[1,3]     OBJ        0
    y[1,3]     c_4022     -43.68
    y[1,3]     flow_cons_inner_nodes[3] 1
    y[1,3]     flow_cons_inner_nodes[1] -1
    y[1,4]     OBJ        0
    y[1,4]     c_4022     -4
    y[1,4]     flow_cons_target 1
    y[1,4]     flow_cons_inner_nodes[1] -1
    y[1,6]     OBJ        0
    y[1,6]     c_4022     -36.4
    y[1,6]     flow_cons_inner_nodes[6] 1
    y[1,6]     flow_cons_inner_nodes[1] -1
    y[1,8]     OBJ        0
    y[1,8]     c_4022     -48.37
    y[1,8]     flow_cons_inner_nodes[8] 1
    y[1,8]     flow_cons_inner_nodes[1] -1
    y[1,9]     OBJ        0
    y[1,9]     c_4022     -52.5
    y[1,9]     flow_cons_inner_nodes[9] 1
    y[1,9]     flow_cons_inner_nodes[1] -1
    y[1,10]    OBJ        0
    y[1,10]    c_4022     -28.79
    y[1,10]    flow_cons_inner_nodes[10] 1
    y[1,10]    flow_cons_inner_nodes[1] -1
    y[2,0]     OBJ        0
    y[2,0]     c_4022     -26.93
    y[2,0]     flow_cons_source -1
    y[2,0]     flow_cons_inner_nodes[2] -1
    y[2,1]     OBJ        0
    y[2,1]     c_4022     -80.53
    y[2,1]     flow_cons_inner_nodes[2] -1
    y[2,1]     flow_cons_inner_nodes[1] 1
    y[2,3]     OBJ        0
    y[2,3]     c_4022     -38.95
    y[2,3]     flow_cons_inner_nodes[3] 1
    y[2,3]     flow_cons_inner_nodes[2] -1
    y[2,5]     OBJ        0
    y[2,5]     c_4022     -6.08
    y[2,5]     flow_cons_inner_nodes[5] 1
    y[2,5]     flow_cons_inner_nodes[2] -1
    y[2,6]     OBJ        0
    y[2,6]     c_4022     -58.14
    y[2,6]     flow_cons_inner_nodes[6] 1
    y[2,6]     flow_cons_inner_nodes[2] -1
    y[2,8]     OBJ        0
    y[2,8]     c_4022     -47.17
    y[2,8]     flow_cons_inner_nodes[8] 1
    y[2,8]     flow_cons_inner_nodes[2] -1
    y[2,9]     OBJ        0
    y[2,9]     c_4022     -56.29
    y[2,9]     flow_cons_inner_nodes[9] 1
    y[2,9]     flow_cons_inner_nodes[2] -1
    y[2,10]    OBJ        0
    y[2,10]    c_4022     -61.98
    y[2,10]    flow_cons_inner_nodes[10] 1
    y[2,10]    flow_cons_inner_nodes[2] -1
    y[3,0]     OBJ        0
    y[3,0]     flow_cons_source -1
    y[3,0]     c_4022     -65.19
    y[3,0]     flow_cons_inner_nodes[3] -1
    y[3,1]     OBJ        0
    y[3,1]     c_4022     -43.68
    y[3,1]     flow_cons_inner_nodes[3] -1
    y[3,1]     flow_cons_inner_nodes[1] 1
    y[3,2]     OBJ        0
    y[3,2]     c_4022     -38.95
    y[3,2]     flow_cons_inner_nodes[3] -1
    y[3,2]     flow_cons_inner_nodes[2] 1
    y[3,4]     OBJ        0
    y[3,4]     flow_cons_target 1
    y[3,4]     c_4022     -44.94
    y[3,4]     flow_cons_inner_nodes[3] -1
    y[3,5]     OBJ        0
    y[3,5]     flow_cons_inner_nodes[5] 1
    y[3,5]     c_4022     -44.2
    y[3,5]     flow_cons_inner_nodes[3] -1
    y[3,6]     OBJ        0
    y[3,6]     flow_cons_inner_nodes[6] 1
    y[3,6]     c_4022     -36.4
    y[3,6]     flow_cons_inner_nodes[3] -1
    y[3,8]     OBJ        0
    y[3,8]     flow_cons_inner_nodes[8] 1
    y[3,8]     c_4022     -34.99
    y[3,8]     flow_cons_inner_nodes[3] -1
    y[3,9]     OBJ        0
    y[3,9]     c_4022     -46.04
    y[3,9]     flow_cons_inner_nodes[9] 1
    y[3,9]     flow_cons_inner_nodes[3] -1
    y[3,10]    OBJ        0
    y[3,10]    flow_cons_inner_nodes[10] 1
    y[3,10]    c_4022     -35.34
    y[3,10]    flow_cons_inner_nodes[3] -1
    y[4,1]     OBJ        0
    y[4,1]     c_4022     -4
    y[4,1]     flow_cons_target -1
    y[4,1]     flow_cons_inner_nodes[1] 1
    y[4,3]     OBJ        0
    y[4,3]     flow_cons_target -1
    y[4,3]     c_4022     -44.94
    y[4,3]     flow_cons_inner_nodes[3] 1
    y[4,6]     OBJ        0
    y[4,6]     c_4022     -40.16
    y[4,6]     flow_cons_target -1
    y[4,6]     flow_cons_inner_nodes[6] 1
    y[4,8]     OBJ        0
    y[4,8]     c_4022     -51.88
    y[4,8]     flow_cons_target -1
    y[4,8]     flow_cons_inner_nodes[8] 1
    y[4,9]     OBJ        0
    y[4,9]     flow_cons_target -1
    y[4,9]     c_4022     -56.32
    y[4,9]     flow_cons_inner_nodes[9] 1
    y[4,10]    OBJ        0
    y[4,10]    c_4022     -32.57
    y[4,10]    flow_cons_target -1
    y[4,10]    flow_cons_inner_nodes[10] 1
    y[5,0]     OBJ        0
    y[5,0]     c_4022     -23.41
    y[5,0]     flow_cons_source -1
    y[5,0]     flow_cons_inner_nodes[5] -1
    y[5,2]     OBJ        0
    y[5,2]     c_4022     -6.08
    y[5,2]     flow_cons_inner_nodes[5] -1
    y[5,2]     flow_cons_inner_nodes[2] 1
    y[5,3]     OBJ        0
    y[5,3]     flow_cons_inner_nodes[5] -1
    y[5,3]     c_4022     -44.2
    y[5,3]     flow_cons_inner_nodes[3] 1
    y[5,6]     OBJ        0
    y[5,6]     c_4022     -64.2
    y[5,6]     flow_cons_inner_nodes[6] 1
    y[5,6]     flow_cons_inner_nodes[5] -1
    y[5,8]     OBJ        0
    y[5,8]     c_4022     -53.08
    y[5,8]     flow_cons_inner_nodes[8] 1
    y[5,8]     flow_cons_inner_nodes[5] -1
    y[5,9]     OBJ        0
    y[5,9]     c_4022     -61.98
    y[5,9]     flow_cons_inner_nodes[9] 1
    y[5,9]     flow_cons_inner_nodes[5] -1
    y[5,10]    OBJ        0
    y[5,10]    c_4022     -68.07
    y[5,10]    flow_cons_inner_nodes[10] 1
    y[5,10]    flow_cons_inner_nodes[5] -1
    y[6,0]     OBJ        0
    y[6,0]     c_4022     -76.9
    y[6,0]     flow_cons_source -1
    y[6,0]     flow_cons_inner_nodes[6] -1
    y[6,1]     OBJ        0
    y[6,1]     c_4022     -36.4
    y[6,1]     flow_cons_inner_nodes[6] -1
    y[6,1]     flow_cons_inner_nodes[1] 1
    y[6,2]     OBJ        0
    y[6,2]     c_4022     -58.14
    y[6,2]     flow_cons_inner_nodes[6] -1
    y[6,2]     flow_cons_inner_nodes[2] 1
    y[6,3]     OBJ        0
    y[6,3]     flow_cons_inner_nodes[6] -1
    y[6,3]     c_4022     -36.4
    y[6,3]     flow_cons_inner_nodes[3] 1
    y[6,4]     OBJ        0
    y[6,4]     c_4022     -40.16
    y[6,4]     flow_cons_target 1
    y[6,4]     flow_cons_inner_nodes[6] -1
    y[6,5]     OBJ        0
    y[6,5]     c_4022     -64.2
    y[6,5]     flow_cons_inner_nodes[6] -1
    y[6,5]     flow_cons_inner_nodes[5] 1
    y[6,7]     OBJ        0
    y[6,7]     c_4022     -61.01
    y[6,7]     flow_cons_inner_nodes[7] 1
    y[6,7]     flow_cons_inner_nodes[6] -1
    y[6,8]     OBJ        0
    y[6,8]     c_4022     -13.6
    y[6,8]     flow_cons_inner_nodes[8] 1
    y[6,8]     flow_cons_inner_nodes[6] -1
    y[6,9]     OBJ        0
    y[6,9]     c_4022     -16.28
    y[6,9]     flow_cons_inner_nodes[9] 1
    y[6,9]     flow_cons_inner_nodes[6] -1
    y[6,10]    OBJ        0
    y[6,10]    c_4022     -7.62
    y[6,10]    flow_cons_inner_nodes[10] 1
    y[6,10]    flow_cons_inner_nodes[6] -1
    y[7,0]     OBJ        0
    y[7,0]     c_4022     -80.53
    y[7,0]     flow_cons_source -1
    y[7,0]     flow_cons_inner_nodes[7] -1
    y[7,6]     OBJ        0
    y[7,6]     c_4022     -61.01
    y[7,6]     flow_cons_inner_nodes[7] -1
    y[7,6]     flow_cons_inner_nodes[6] 1
    y[7,8]     OBJ        0
    y[7,8]     c_4022     -54.34
    y[7,8]     flow_cons_inner_nodes[8] 1
    y[7,8]     flow_cons_inner_nodes[7] -1
    y[7,9]     OBJ        0
    y[7,9]     c_4022     -45.18
    y[7,9]     flow_cons_inner_nodes[9] 1
    y[7,9]     flow_cons_inner_nodes[7] -1
    y[7,10]    OBJ        0
    y[7,10]    c_4022     -68.03
    y[7,10]    flow_cons_inner_nodes[10] 1
    y[7,10]    flow_cons_inner_nodes[7] -1
    y[8,0]     OBJ        0
    y[8,0]     c_4022     -63.89
    y[8,0]     flow_cons_source -1
    y[8,0]     flow_cons_inner_nodes[8] -1
    y[8,1]     OBJ        0
    y[8,1]     c_4022     -48.37
    y[8,1]     flow_cons_inner_nodes[8] -1
    y[8,1]     flow_cons_inner_nodes[1] 1
    y[8,2]     OBJ        0
    y[8,2]     c_4022     -47.17
    y[8,2]     flow_cons_inner_nodes[8] -1
    y[8,2]     flow_cons_inner_nodes[2] 1
    y[8,3]     OBJ        0
    y[8,3]     flow_cons_inner_nodes[8] -1
    y[8,3]     c_4022     -34.99
    y[8,3]     flow_cons_inner_nodes[3] 1
    y[8,4]     OBJ        0
    y[8,4]     c_4022     -51.88
    y[8,4]     flow_cons_target 1
    y[8,4]     flow_cons_inner_nodes[8] -1
    y[8,5]     OBJ        0
    y[8,5]     c_4022     -53.08
    y[8,5]     flow_cons_inner_nodes[8] -1
    y[8,5]     flow_cons_inner_nodes[5] 1
    y[8,6]     OBJ        0
    y[8,6]     c_4022     -13.6
    y[8,6]     flow_cons_inner_nodes[8] -1
    y[8,6]     flow_cons_inner_nodes[6] 1
    y[8,7]     OBJ        0
    y[8,7]     c_4022     -54.34
    y[8,7]     flow_cons_inner_nodes[8] -1
    y[8,7]     flow_cons_inner_nodes[7] 1
    y[8,9]     OBJ        0
    y[8,9]     c_4022     -11.31
    y[8,9]     flow_cons_inner_nodes[9] 1
    y[8,9]     flow_cons_inner_nodes[8] -1
    y[8,10]    OBJ        0
    y[8,10]    c_4022     -20.52
    y[8,10]    flow_cons_inner_nodes[10] 1
    y[8,10]    flow_cons_inner_nodes[8] -1
    y[9,0]     OBJ        0
    y[9,0]     flow_cons_source -1
    y[9,0]     c_4022     -69.87
    y[9,0]     flow_cons_inner_nodes[9] -1
    y[9,1]     OBJ        0
    y[9,1]     c_4022     -52.5
    y[9,1]     flow_cons_inner_nodes[9] -1
    y[9,1]     flow_cons_inner_nodes[1] 1
    y[9,2]     OBJ        0
    y[9,2]     c_4022     -56.29
    y[9,2]     flow_cons_inner_nodes[9] -1
    y[9,2]     flow_cons_inner_nodes[2] 1
    y[9,3]     OBJ        0
    y[9,3]     c_4022     -46.04
    y[9,3]     flow_cons_inner_nodes[9] -1
    y[9,3]     flow_cons_inner_nodes[3] 1
    y[9,4]     OBJ        0
    y[9,4]     flow_cons_target 1
    y[9,4]     c_4022     -56.32
    y[9,4]     flow_cons_inner_nodes[9] -1
    y[9,5]     OBJ        0
    y[9,5]     c_4022     -61.98
    y[9,5]     flow_cons_inner_nodes[9] -1
    y[9,5]     flow_cons_inner_nodes[5] 1
    y[9,6]     OBJ        0
    y[9,6]     c_4022     -16.28
    y[9,6]     flow_cons_inner_nodes[9] -1
    y[9,6]     flow_cons_inner_nodes[6] 1
    y[9,7]     OBJ        0
    y[9,7]     c_4022     -45.18
    y[9,7]     flow_cons_inner_nodes[9] -1
    y[9,7]     flow_cons_inner_nodes[7] 1
    y[9,8]     OBJ        0
    y[9,8]     c_4022     -11.31
    y[9,8]     flow_cons_inner_nodes[9] -1
    y[9,8]     flow_cons_inner_nodes[8] 1
    y[9,10]    OBJ        0
    y[9,10]    flow_cons_inner_nodes[10] 1
    y[9,10]    c_4022     -23.77
    y[9,10]    flow_cons_inner_nodes[9] -1
    y[10,1]    OBJ        0
    y[10,1]    c_4022     -28.79
    y[10,1]    flow_cons_inner_nodes[10] -1
    y[10,1]    flow_cons_inner_nodes[1] 1
    y[10,2]    OBJ        0
    y[10,2]    c_4022     -61.98
    y[10,2]    flow_cons_inner_nodes[10] -1
    y[10,2]    flow_cons_inner_nodes[2] 1
    y[10,3]    OBJ        0
    y[10,3]    flow_cons_inner_nodes[10] -1
    y[10,3]    c_4022     -35.34
    y[10,3]    flow_cons_inner_nodes[3] 1
    y[10,4]    OBJ        0
    y[10,4]    c_4022     -32.57
    y[10,4]    flow_cons_target 1
    y[10,4]    flow_cons_inner_nodes[10] -1
    y[10,5]    OBJ        0
    y[10,5]    c_4022     -68.07
    y[10,5]    flow_cons_inner_nodes[10] -1
    y[10,5]    flow_cons_inner_nodes[5] 1
    y[10,6]    OBJ        0
    y[10,6]    c_4022     -7.62
    y[10,6]    flow_cons_inner_nodes[10] -1
    y[10,6]    flow_cons_inner_nodes[6] 1
    y[10,7]    OBJ        0
    y[10,7]    c_4022     -68.03
    y[10,7]    flow_cons_inner_nodes[10] -1
    y[10,7]    flow_cons_inner_nodes[7] 1
    y[10,8]    OBJ        0
    y[10,8]    c_4022     -20.52
    y[10,8]    flow_cons_inner_nodes[10] -1
    y[10,8]    flow_cons_inner_nodes[8] 1
    y[10,9]    OBJ        0
    y[10,9]    flow_cons_inner_nodes[10] -1
    y[10,9]    c_4022     -23.77
    y[10,9]    flow_cons_inner_nodes[9] 1
    MARKER    'MARKER'                 'INTEND'
RHS
    RHS       flow_cons_inner_nodes[1] -0
    RHS       flow_cons_inner_nodes[2] -0
    RHS       flow_cons_inner_nodes[3] -0
    RHS       flow_cons_inner_nodes[5] -0
    RHS       flow_cons_inner_nodes[6] -0
    RHS       flow_cons_inner_nodes[7] -0
    RHS       flow_cons_inner_nodes[8] -0
    RHS       flow_cons_inner_nodes[9] -0
    RHS       flow_cons_inner_nodes[10] -0
    RHS       flow_cons_source 1
    RHS       flow_cons_target 1
    RHS       c_4022     -0
BOUNDS
 LI BND       y[0,2]     0
 UI BND       y[0,2]     1
 LI BND       y[0,3]     0
 UI BND       y[0,3]     1
 LI BND       y[0,5]     0
 UI BND       y[0,5]     1
 LI BND       y[0,6]     0
 UI BND       y[0,6]     1
 LI BND       y[0,7]     0
 UI BND       y[0,7]     1
 LI BND       y[0,8]     0
 UI BND       y[0,8]     1
 LI BND       y[0,9]     0
 UI BND       y[0,9]     1
 LI BND       y[1,2]     0
 UI BND       y[1,2]     1
 LI BND       y[1,3]     0
 UI BND       y[1,3]     1
 LI BND       y[1,4]     0
 UI BND       y[1,4]     1
 LI BND       y[1,6]     0
 UI BND       y[1,6]     1
 LI BND       y[1,8]     0
 UI BND       y[1,8]     1
 LI BND       y[1,9]     0
 UI BND       y[1,9]     1
 LI BND       y[1,10]    0
 UI BND       y[1,10]    1
 LI BND       y[2,0]     0
 UI BND       y[2,0]     1
 LI BND       y[2,1]     0
 UI BND       y[2,1]     1
 LI BND       y[2,3]     0
 UI BND       y[2,3]     1
 LI BND       y[2,5]     0
 UI BND       y[2,5]     1
 LI BND       y[2,6]     0
 UI BND       y[2,6]     1
 LI BND       y[2,8]     0
 UI BND       y[2,8]     1
 LI BND       y[2,9]     0
 UI BND       y[2,9]     1
 LI BND       y[2,10]    0
 UI BND       y[2,10]    1
 LI BND       y[3,0]     0
 UI BND       y[3,0]     1
 LI BND       y[3,1]     0
 UI BND       y[3,1]     1
 LI BND       y[3,2]     0
 UI BND       y[3,2]     1
 LI BND       y[3,4]     0
 UI BND       y[3,4]     1
 LI BND       y[3,5]     0
 UI BND       y[3,5]     1
 LI BND       y[3,6]     0
 UI BND       y[3,6]     1
 LI BND       y[3,8]     0
 UI BND       y[3,8]     1
 LI BND       y[3,9]     0
 UI BND       y[3,9]     1
 LI BND       y[3,10]    0
 UI BND       y[3,10]    1
 LI BND       y[4,1]     0
 UI BND       y[4,1]     1
 LI BND       y[4,3]     0
 UI BND       y[4,3]     1
 LI BND       y[4,6]     0
 UI BND       y[4,6]     1
 LI BND       y[4,8]     0
 UI BND       y[4,8]     1
 LI BND       y[4,9]     0
 UI BND       y[4,9]     1
 LI BND       y[4,10]    0
 UI BND       y[4,10]    1
 LI BND       y[5,0]     0
 UI BND       y[5,0]     1
 LI BND       y[5,2]     0
 UI BND       y[5,2]     1
 LI BND       y[5,3]     0
 UI BND       y[5,3]     1
 LI BND       y[5,6]     0
 UI BND       y[5,6]     1
 LI BND       y[5,8]     0
 UI BND       y[5,8]     1
 LI BND       y[5,9]     0
 UI BND       y[5,9]     1
 LI BND       y[5,10]    0
 UI BND       y[5,10]    1
 LI BND       y[6,0]     0
 UI BND       y[6,0]     1
 LI BND       y[6,1]     0
 UI BND       y[6,1]     1
 LI BND       y[6,2]     0
 UI BND       y[6,2]     1
 LI BND       y[6,3]     0
 UI BND       y[6,3]     1
 LI BND       y[6,4]     0
 UI BND       y[6,4]     1
 LI BND       y[6,5]     0
 UI BND       y[6,5]     1
 LI BND       y[6,7]     0
 UI BND       y[6,7]     1
 LI BND       y[6,8]     0
 UI BND       y[6,8]     1
 LI BND       y[6,9]     0
 UI BND       y[6,9]     1
 LI BND       y[6,10]    0
 UI BND       y[6,10]    1
 LI BND       y[7,0]     0
 UI BND       y[7,0]     1
 LI BND       y[7,6]     0
 UI BND       y[7,6]     1
 LI BND       y[7,8]     0
 UI BND       y[7,8]     1
 LI BND       y[7,9]     0
 UI BND       y[7,9]     1
 LI BND       y[7,10]    0
 UI BND       y[7,10]    1
 LI BND       y[8,0]     0
 UI BND       y[8,0]     1
 LI BND       y[8,1]     0
 UI BND       y[8,1]     1
 LI BND       y[8,2]     0
 UI BND       y[8,2]     1
 LI BND       y[8,3]     0
 UI BND       y[8,3]     1
 LI BND       y[8,4]     0
 UI BND       y[8,4]     1
 LI BND       y[8,5]     0
 UI BND       y[8,5]     1
 LI BND       y[8,6]     0
 UI BND       y[8,6]     1
 LI BND       y[8,7]     0
 UI BND       y[8,7]     1
 LI BND       y[8,9]     0
 UI BND       y[8,9]     1
 LI BND       y[8,10]    0
 UI BND       y[8,10]    1
 LI BND       y[9,0]     0
 UI BND       y[9,0]     1
 LI BND       y[9,1]     0
 UI BND       y[9,1]     1
 LI BND       y[9,2]     0
 UI BND       y[9,2]     1
 LI BND       y[9,3]     0
 UI BND       y[9,3]     1
 LI BND       y[9,4]     0
 UI BND       y[9,4]     1
 LI BND       y[9,5]     0
 UI BND       y[9,5]     1
 LI BND       y[9,6]     0
 UI BND       y[9,6]     1
 LI BND       y[9,7]     0
 UI BND       y[9,7]     1
 LI BND       y[9,8]     0
 UI BND       y[9,8]     1
 LI BND       y[9,10]    0
 UI BND       y[9,10]    1
 LI BND       y[10,1]    0
 UI BND       y[10,1]    1
 LI BND       y[10,2]    0
 UI BND       y[10,2]    1
 LI BND       y[10,3]    0
 UI BND       y[10,3]    1
 LI BND       y[10,4]    0
 UI BND       y[10,4]    1
 LI BND       y[10,5]    0
 UI BND       y[10,5]    1
 LI BND       y[10,6]    0
 UI BND       y[10,6]    1
 LI BND       y[10,7]    0
 UI BND       y[10,7]    1
 LI BND       y[10,8]    0
 UI BND       y[10,8]    1
 LI BND       y[10,9]    0
 UI BND       y[10,9]    1
 LO BND       z          0
 UP BND       z          4746.66
ENDATA
